387181861 1 0
1 2 0
192501298 3 0
188931895 -4 0
173871372 -5 0
410135794 -6 0
181162754 -7 0
h -8 0
371333464 -4 0
528453853 1 0
1 8 0
1 -8 0
435299429 9 0
465380790 10 0
216199841 -11 0
228536193 10 0
203228769 -12 0
322114117 -13 0
